NAME : ManP-10-1.4497191.tour
COMMENT : Length = 4497191
COMMENT : Found by LKH [Keld Helsgaun] Thu Nov 29 13:06:55 2018
TYPE : TOUR
DIMENSION : 15
TOUR_SECTION
1
12
14
13
7
3
5
9
8
10
4
11
6
2
15
-1
EOF
